
Gurobi 11.0.1 (win64) logging started Thu May 16 18:54:42 2024

Set parameter LogFile to value "output/solver_log23.txt"
Gurobi Optimizer version 11.0.1 build v11.0.1rc0 (win64 - Windows 11.0 (22631.2))

CPU model: 11th Gen Intel(R) Core(TM) i7-1165G7 @ 2.80GHz, instruction set [SSE2|AVX|AVX2|AVX512]
Thread count: 4 physical cores, 8 logical processors, using up to 8 threads

Optimize a model with 4548 rows, 1100 columns and 83926 nonzeros
Model fingerprint: 0xbb993d60
Variable types: 568 continuous, 532 integer (532 binary)
Coefficient statistics:
  Matrix range     [4e-01, 1e+05]
  Objective range  [1e+00, 1e+02]
  Bounds range     [1e+00, 1e+00]
  RHS range        [1e-02, 1e+05]

User MIP start produced solution with objective 40339.7 (0.01s)
User MIP start produced solution with objective 40339.7 (0.01s)
Loaded user MIP start with objective 40339.7

Presolve removed 621 rows and 334 columns
Presolve time: 0.11s
Presolved: 3927 rows, 766 columns, 74234 nonzeros
Variable types: 526 continuous, 240 integer (235 binary)

Root relaxation: objective 4.825494e+04, 1574 iterations, 0.09 seconds (0.17 work units)

    Nodes    |    Current Node    |     Objective Bounds      |     Work
 Expl Unexpl |  Obj  Depth IntInf | Incumbent    BestBd   Gap | It/Node Time

     0     0 48254.9354    0   35 40339.6522 48254.9354  19.6%     -    0s
     0     0 46673.5993    0   37 40339.6522 46673.5993  15.7%     -    0s
     0     0 45501.6443    0   39 40339.6522 45501.6443  12.8%     -    0s
     0     0 45501.6443    0   43 40339.6522 45501.6443  12.8%     -    0s
     0     0 45501.6443    0   50 40339.6522 45501.6443  12.8%     -    0s
     0     0 45501.6443    0   52 40339.6522 45501.6443  12.8%     -    0s
     0     0 45501.6443    0   51 40339.6522 45501.6443  12.8%     -    0s
     0     0 45381.8246    0   43 40339.6522 45381.8246  12.5%     -    1s
     0     0 45274.5972    0   49 40339.6522 45274.5972  12.2%     -    1s
     0     0 45274.4774    0   53 40339.6522 45274.4774  12.2%     -    1s
     0     0 44893.7708    0   64 40339.6522 44893.7708  11.3%     -    1s
     0     0 44863.4694    0   63 40339.6522 44863.4694  11.2%     -    1s
     0     0 44857.3775    0   64 40339.6522 44857.3775  11.2%     -    1s
     0     0 44854.7086    0   62 40339.6522 44854.7086  11.2%     -    1s
     0     0 44854.5784    0   63 40339.6522 44854.5784  11.2%     -    1s
     0     0 44836.9766    0   59 40339.6522 44836.9766  11.1%     -    1s
     0     0 44742.9209    0   62 40339.6522 44742.9209  10.9%     -    1s
     0     0 44742.9209    0   64 40339.6522 44742.9209  10.9%     -    1s
     0     0 44742.9209    0   65 40339.6522 44742.9209  10.9%     -    2s
     0     0 44742.9209    0   65 40339.6522 44742.9209  10.9%     -    2s
     0     0 44742.9209    0   67 40339.6522 44742.9209  10.9%     -    2s
     0     0 44742.9209    0   61 40339.6522 44742.9209  10.9%     -    2s
     0     0 44623.7282    0   62 40339.6522 44623.7282  10.6%     -    2s
     0     0 44620.3321    0   64 40339.6522 44620.3321  10.6%     -    2s
     0     0 44620.3321    0   62 40339.6522 44620.3321  10.6%     -    2s
     0     0 44620.3321    0   61 40339.6522 44620.3321  10.6%     -    2s
     0     0 44620.3321    0   62 40339.6522 44620.3321  10.6%     -    2s
     0     0 44620.3321    0   60 40339.6522 44620.3321  10.6%     -    2s
     0     0 44620.3321    0   64 40339.6522 44620.3321  10.6%     -    2s
     0     0 44620.3321    0   70 40339.6522 44620.3321  10.6%     -    2s
     0     0 44620.3321    0   68 40339.6522 44620.3321  10.6%     -    2s
     0     0 44620.3321    0   68 40339.6522 44620.3321  10.6%     -    2s
     0     0 44620.3321    0   67 40339.6522 44620.3321  10.6%     -    2s
     0     0 44620.3321    0   69 40339.6522 44620.3321  10.6%     -    2s
     0     0 44620.3321    0   69 40339.6522 44620.3321  10.6%     -    3s
     0     0 44620.3321    0   73 40339.6522 44620.3321  10.6%     -    3s
     0     0 44493.6612    0   63 40339.6522 44493.6612  10.3%     -    3s
     0     0 44493.6612    0   60 40339.6522 44493.6612  10.3%     -    3s
     0     0 44493.6612    0   67 40339.6522 44493.6612  10.3%     -    3s
     0     0 44493.6612    0   62 40339.6522 44493.6612  10.3%     -    3s
     0     0 44493.6612    0   57 40339.6522 44493.6612  10.3%     -    3s
     0     0 44473.0283    0   59 40339.6522 44473.0283  10.2%     -    3s
     0     0 44473.0283    0   61 40339.6522 44473.0283  10.2%     -    3s
     0     0 44473.0283    0   63 40339.6522 44473.0283  10.2%     -    3s
     0     0 44473.0283    0   63 40339.6522 44473.0283  10.2%     -    3s
     0     0 44473.0283    0   63 40339.6522 44473.0283  10.2%     -    3s
     0     0 44473.0283    0   62 40339.6522 44473.0283  10.2%     -    3s
     0     0 44473.0283    0   61 40339.6522 44473.0283  10.2%     -    3s
     0     2 44473.0283    0   61 40339.6522 44473.0283  10.2%     -    4s
    33    34 41173.0271    7   31 40339.6522 43633.6738  8.17%   535    5s
  1017   528 40341.1127   61    7 40339.6522 40363.2179  0.06%   151   10s
 14902  1468 40339.7021 6429    1 40339.6522 40363.2179  0.06%  14.7   16s

Cutting planes:
  Gomory: 2
  Implied bound: 6
  MIR: 67
  RLT: 5
  BQP: 2

Explored 17848 nodes (239690 simplex iterations) in 16.78 seconds (29.44 work units)
Thread count was 8 (of 8 available processors)

Solution count 2: 40339.7 40339.7 

Optimal solution found (tolerance 1.00e-04)
Best objective 4.033965216137e+04, best bound 4.034352955015e+04, gap 0.0096%
